55722039343688707305014,6,1,2,01,9,1,2,013,5,1,2,013,2,1,2,012,13,1,2,07,5,1,2,012,5,1,2,014,14,1,2,06,7,1,2,015,1,1,2,05,2,1,2,06,3,1,2,01,12,1,2,011,2,1,2,08,15,1,2,09,6,1,2,08,11,1,2,05,1,1,2,05,4,1,2,03,11,1,2,09,4,1,2,012,7,1,2,011,15,1,2,014,13,1,2,07,1,1,2,04,10,1,2,01,5,1,2,012,3,1,2,05,3,1,2,01,9,1,2,014,11,1,2,011,2,1,2,012,14,1,2,02,13,1,2,014,11,1,2,015,12,1,2,010,1,1,2,01,13,1,2,09,15,1,2,014,7,1,2,04,8,1,2,014,1,1,2,01,6,1,2,09,11,1,2,014,3,1,2,014,9,1,2,013,1,1,2,014,6,1,2,06,6,1,2,07,4,1,2,0